! Mudmat / shallow-foundation screening FE — generated by digitalmodel.ansys.mudmat
! Units: mm, N, MPa. SHELL181 plate; soil reaction as a Meyerhof effective-area
! pressure patch. The plate-bending check is here; the bearing check belongs to
! digitalmodel.geotechnical.mudmat and is NOT computed by this deck (#2094 D1).
!
! Eccentricity e = M/V         = 500.000 mm
! Effective length L_eff = L-2e = 3000.000 mm
! Effective area  A_eff        = 9000000.0 mm^2
! Soil pressure   q = V/A_eff  = 0.088889 MPa (uniform, upward, x >= 1000.000)
FINISH
/CLEAR,NOSTART
/TITLE,Mudmat screening: 4000.0x3000.0mm t=60.0mm
/UNITS,MPA
/PREP7

! --- material (linear elastic steel) ---
MP,EX,1,205000.0
MP,PRXY,1,0.3

! --- element: SHELL181, thickness from the section ---
! No elastic foundation real constant: SHELL181 does not consume one. The prior
! deck set R,1,t,,,ksub; RLIST confirmed the value was stored and the element
! ignored it, so the plate had no vertical stiffness and the solve was singular
! at every UZ degree of freedom (#2094).
ET,1,SHELL181
SECTYPE,1,SHELL
SECDATA,60.0,1
SECNUM,1

! --- geometry: rectangular mat in the X-Y plane ---
BLC4,0,0,4000.0,3000.0   ! area 1 = mat plate

! --- mesh ---
TYPE,1
MAT,1
ESIZE,100.0
AMESH,ALL

! --- boundary conditions: statically determinate, six modes removed ---
! The applied field and the soil reaction balance by construction, so these
! restraints carry no load. Their reactions are the conservation check.
NSEL,S,LOC,X,0
NSEL,R,LOC,Y,0
D,ALL,UX,0
D,ALL,UY,0
D,ALL,UZ,0
ALLSEL,ALL
NSEL,S,LOC,X,4000.0
NSEL,R,LOC,Y,0
D,ALL,UY,0
D,ALL,UZ,0
ALLSEL,ALL
NSEL,S,LOC,X,0
NSEL,R,LOC,Y,3000.0
D,ALL,UZ,0
ALLSEL,ALL

! --- load 1: applied field, uniform + overturning gradient (downward) ---
! p(x) = 0.06666667 + 0.0000250000*x   [MPa], integrates to V and to M
ALLSEL,ALL
SFGRAD,PRES,0,X,0,0.0000250000
SFE,ALL,1,PRES,,0.01666667
SFGRAD                      ! clear the gradient before the next surface load

! --- load 2: soil reaction over the effective area (upward) ---
! Applied to face 2 so it opposes load 1. If the sign were wrong the reactions
! below would not vanish, which is exactly what that check is for.
ESEL,S,CENT,X,1000.000000,4000.0
SFE,ALL,2,PRES,,0.08888889
ALLSEL,ALL

! --- solve (static structural) ---
/SOLU
ANTYPE,STATIC
SOLVE
FINISH

! --- post: peak plate von Mises + equilibrium ---
/POST1
SET,LAST
NSORT,S,EQV
*GET,smax,SORT,0,MAX
*GET,peak_node,SORT,0,IMAX
allow = 212.57485029940122
stress_uc = smax / allow

! --- equilibrium check (#2094) ---
! Applied load and soil reaction balance by construction, so every reaction
! shall be zero to solver precision. A non-zero FZ means the applied field and
! the patch do not integrate to the same resultant.
NSEL,S,LOC,X,0
NSEL,A,LOC,X,4000.0
FSUM
*GET,rfz,FSUM,0,ITEM,FZ
ALLSEL,ALL

/COM,============================================================
/COM,MUDMAT SCREENING RESULT (plate bending only)
*MSG,INFO,smax,allow,stress_uc
peak von Mises = %G MPa ; allowable = %G MPa ; stress UC = %G
*MSG,INFO,rfz
reaction FZ = %G N  (shall be ~0: loads balance by construction)
/COM,Soil bearing is NOT evaluated here. Use
/COM,digitalmodel.geotechnical.mudmat.mudmat_bearing_capacity for the
/COM,bearing check; this deck applies q = V/A_eff from that same idealisation.
/COM,============================================================
! numeric digest for the postprocessor (small, returnable)
! Field names follow the common digest schema shared by every screening deck:
! max_seqv_mpa, allowable_mpa, uc, peak_node, reaction_*. Case-specific fields
! follow. A common core is what lets one golden test serve every case.
*CFOPEN,mudmat_result,csv
*VWRITE,smax,allow,stress_uc,peak_node,rfz,0.08888889,500.000000
('max_seqv_mpa,',F12.4,',allowable_mpa,',F12.4,',uc,',F10.5,',peak_node,',F10.0,',reaction_fz_n,',F14.4,',q_soil_mpa,',F12.6,',eccentricity_mm,',F12.4)
*CFCLOS
FINISH
